problem_generation/data/GISP/train/er_n=63_m=1146_p=0.60_SET2_setparam=100.00_alpha=0.50_840.lp
maximize
OBJ:100x0 + 100x1 + 100x2 + 100x3 + 100x4 + 100x5 + 100x6 + 100x7 + 100x8 + 100x9 + 100x10 + 100x11 + 100x12 + 100x13 + 100x14 + 100x15 + 100x16 + 100x17 + 100x18 + 100x19 + 100x20 + 100x21 + 100x22 + 100x23 + 100x24 + 100x25 + 100x26 + 100x27 + 100x28 + 100x29 + 100x30 + 100x31 + 100x32 + 100x33 + 100x34 + 100x35 + 100x36 + 100x37 + 100x38 + 100x39 + 100x40 + 100x41 + 100x42 + 100x43 + 100x44 + 100x45 + 100x46 + 100x47 + 100x48 + 100x49 + 100x50 + 100x51 + 100x52 + 100x53 + 100x54 + 100x55 + 100x56 + 100x57 + 100x58 + 100x59 + 100x60 + 100x61 + 100x62 - y7_26 - y15_39 - y7_35 - y0_5 - y0_14 - y21_46 - y6_57 - y21_55 - y41_42 - y25_34 - y10_45 - y2_41 - y3_6 - y25_43 - y33_56 - y14_15 - y25_61 - y32_60 - y43_60 - y22_37 - y3_33 - y14_42 - y7_12 - y36_48 - y15_25 - y55_61 - y18_21 - y47_57 - y7_30 - y17_62 - y10_31 - y25_29 - y2_45 - y2_54 - y3_19 - y43_55 - y22_32 - y35_60 - y14_37 - y36_52 - y47_52 - y5_46 - y47_61 - y17_57 - y6_29 - y21_27 - y6_38 - y29_40 - y29_49 - y40_49 - y21_54 - y2_13 - y10_26 - y39_62 - y2_31 - y2_40 - y32_41 - y3_14 - y14_23 - y43_59 - y24_55 - y35_55 - y14_32 - y16_60 - y28_34 - y28_43 - y36_56 - y5_50 - y9_48 - y21_22 - y50_58 - y6_33 - y6_51 - y21_49 - y10_21 - y2_17 - y20_53 - y20_62 - y25_28 - y10_39 - y12_58 - y32_45 - y51_58 - y24_41 - y35_41 - y3_18 - y14_18 - y16_37 - y35_50 - y16_46 - y1_57 - y5_27 - y17_29 - y5_36 - y28_47 - y6_10 - y21_26 - y6_46 - y20_39 - y20_48 - y10_25 - y12_44 - y2_21 - y12_53 - y23_53 - y13_27 - y3_4 - y24_36 - y35_36 - y35_45 - y16_41 - y1_52 - y16_59 - y57_60 - y17_33 - y28_33 - y3_47 - y5_40 - y28_42 - y9_47 - y27_55 - y0_56 - y2_7 - y12_39 - y20_61 - y12_57 - y32_35 - y1_29 - y1_38 - y16_45 - y17_19 - y38_51 - y38_60 - y9_33 - y27_41 - y50_52 - y19_46 - y8_55 - y11_51 - y11_60 - y23_25 - y12_34 - y20_56 - y13_26 - y4_57 - y16_22 - y34_58 - y35_44 - y16_40 - y1_51 - y16_49 - y38_46 - y5_21 - y57_59 - y15_53 - y18_58 - y27_36 - y19_41 - y27_54 - y12_20 - y31_33 - y23_29 - y20_51 - y31_51 - y23_47 - y1_10 - y4_52 - y16_17 - y24_30 - y4_61 - y5_16 - y15_48 - y26_48 - y26_57 - y49_59 - y18_62 - y8_27 - y27_40 - y8_36 - y42_47 - y27_58 - y11_41 - y42_56 - y20_28 - y12_24 - y23_24 - y4_20 - y4_38 - y45_48 - y37_44 - y22_55 - y34_57 - y56_57 - y37_53 - y15_34 - y15_43 - y46_58 - y49_54 - y8_13 - y15_61 - y7_57 - y8_22 - y27_35 - y30_31 - y27_44 - y0_27 - y0_36 - y30_49 - y41_46 - y20_23 - y4_6 - y11_54 - y52_55 - y33_60 - y34_43 - y34_52 - y45_61 - y15_20 - y18_34 - y7_43 - y18_43 - y15_56 - y0_4 - y7_52 - y18_52 - y27_30 - y0_13 - y7_61 - y8_26 - y18_61 - y19_44 - y11_49 - y4_10 - y41_59 - y10_53 - y25_51 - y10_62 - y25_60 - y34_38 - y1_13 - y45_47 - y3_41 - y14_41 - y37_43 - y3_50 - y15_33 - y26_33 - y18_29 - y15_51 - y0_8 - y7_56 - y0_17 - y40_53 - y6_60 - y21_58 - y0_35 - y4_5 - y33_41 - y25_37 - y33_59 - y44_59 - y22_31 - y14_27 - y34_42 - y37_38 - y22_49 - y37_47 - y14_54 - y15_19 - y47_60 - y59_62 - y29_48 - y40_48 - y21_44 - y6_55 - y11_21 - y11_30 - y10_34 - y33_36 - y25_32 - y10_43 - y41_58 - y2_48 - y3_13 - y22_26 - y2_57 - y14_22 - y34_37 - y3_31 - y14_31 - y37_42 - y3_49 - y7_10 - y36_55 - y47_55 - y15_32 - y28_51 - y7_37 - y9_56 - y29_34 - y8_11 - y48_56 - y21_39 - y11_16 - y29_61 - y40_61 - y25_27 - y2_34 - y3_8 - y51_57 - y25_54 - y14_17 - y32_53 - y22_30 - y13_58 - y15_18 - y17_46 - y6_27 - y0_2 - y6_36 - y29_38 - y21_34 - y6_45 - y21_43 - y6_54 - y10_15 - y21_61 - y10_33 - y2_29 - y25_31 - y10_42 - y33_44 - y3_12 - y32_48 - y51_61 - y24_53 - y3_30 - y24_62 - y55_58 - y36_54 - y9_37 - y47_54 - y17_50 - y5_57 - y6_22 - y28_59 - y9_55 - y6_40 - y21_38 - y6_58 - y10_19 - y10_28 - y3_7 - y32_43 - y43_52 - y35_48 - y43_61 - y13_57 - y16_53 - y17_27 - y9_23 - y28_36 - y47_49 - y9_32 - y17_54 - y28_54 - y5_61 - y9_59 - y50_60 - y20_55 - y54_57 - y23_51 - y4_56 - y32_47 - y43_47 - y51_60 - y13_43 - y32_56 - y16_39 - y43_56 - y1_50 - y13_52 - y16_48 - y35_61 - y28_31 - y36_44 - y9_36 - y5_47 - y28_49 - y6_21 - y6_30 - y19_58 - y39_45 - y10_18 - y23_46 - y20_59 - y4_42 - y12_55 - y4_51 - y32_33 - y4_60 - y35_38 - y43_51 - y46_53 - y9_13 - y17_26 - y38_58 - y49_58 - y9_31 - y6_7 - y8_53 - y0_49 - y19_62 - y20_36 - y31_36 - y10_13 - y23_32 - y2_9 - y20_45 - y31_45 - y12_41 - y4_37 - y32_37 - y35_51 - y16_47 - y5_10 - y38_53 - y28_30 - y9_35 - y6_11 - y8_39 - y8_48 - y27_61 - y30_57 - y20_22 - y11_53 - y12_18 - y2_4 - y4_23 - y31_40 - y12_36 - y23_36 - y31_49 - y23_45 - y20_58 - y12_54 - y4_50 - y1_26 - y16_24 - y16_33 - y38_39 - y46_61 - y5_32 - y18_51 - y27_29 - y8_25 - y27_38 - y8_34 - y0_30 - y27_56 - y42_54 - y0_57 - y11_57 - y12_22 - y4_18 - y23_31 - y4_27 - y23_40 - y4_36 - y34_46 - y1_21 - y4_54 - y16_19 - y34_55 - y45_55 - y37_51 - y15_41 - y15_50 - y38_52 - y8_29 - y11_25 - y19_38 - y11_43 - y30_56 - y0_52 - y11_52 - y23_26 - y4_22 - y23_44 - y1_16 - y13_18 - y53_54 - y45_50 - y37_46 - y45_59 - y3_62 - y7_32 - y26_54 - y8_15 - y7_59 - y30_33 - y0_38 - y11_38 - y19_51 - y4_8 - y41_57 - y4_17 - y25_49 - y25_58 - y4_35 - y22_34 - y3_39 - y14_57 - y15_22 - y37_59 - y7_27 - y18_27 - y37_49 - y15_49 - y7_45 - y8_10 - y7_54 - y27_32 - y0_15 - y8_28 - y29_60 - y8_37 - y30_37 - y11_33 - y11_42 - y12_16 - y10_46 - y44_48 - y4_21 - y25_62 - y34_49 - y14_43 - y22_56 - y45_58 - y3_52 - y14_52 - y15_17 - y26_35 - y18_49 - y8_23 - y0_19 - y40_55 - y0_28 - y11_28 - y21_60 - y41_56 - y25_39 - y52_56 - y33_52 - y44_52 - y2_46 - y44_61 - y22_24 - y25_57 - y34_35 - y14_29 - y14_38 - y37_40 - y14_47 - y7_8 - y3_56
 Subject to
C1: x0+x1 <=1 
C2: x0+x2-y0_2 <=1 
C3: x0+x3 <=1 
C4: x0+x4-y0_4 <=1 
C5: x0+x5-y0_5 <=1 
C6: x0+x8-y0_8 <=1 
C7: x0+x9 <=1 
C8: x0+x12 <=1 
C9: x0+x13-y0_13 <=1 
C10: x0+x14-y0_14 <=1 
C11: x0+x15-y0_15 <=1 
C12: x0+x17-y0_17 <=1 
C13: x0+x19-y0_19 <=1 
C14: x0+x21 <=1 
C15: x0+x22 <=1 
C16: x0+x23 <=1 
C17: x0+x24 <=1 
C18: x0+x26 <=1 
C19: x0+x27-y0_27 <=1 
C20: x0+x28-y0_28 <=1 
C21: x0+x30-y0_30 <=1 
C22: x0+x31 <=1 
C23: x0+x32 <=1 
C24: x0+x33 <=1 
C25: x0+x35-y0_35 <=1 
C26: x0+x36-y0_36 <=1 
C27: x0+x37 <=1 
C28: x0+x38-y0_38 <=1 
C29: x0+x40 <=1 
C30: x0+x41 <=1 
C31: x0+x43 <=1 
C32: x0+x44 <=1 
C33: x0+x47 <=1 
C34: x0+x48 <=1 
C35: x0+x49-y0_49 <=1 
C36: x0+x51 <=1 
C37: x0+x52-y0_52 <=1 
C38: x0+x55 <=1 
C39: x0+x56-y0_56 <=1 
C40: x0+x57-y0_57 <=1 
C41: x0+x58 <=1 
C42: x1+x2 <=1 
C43: x1+x4 <=1 
C44: x1+x5 <=1 
C45: x1+x6 <=1 
C46: x1+x9 <=1 
C47: x1+x10-y1_10 <=1 
C48: x1+x13-y1_13 <=1 
C49: x1+x14 <=1 
C50: x1+x15 <=1 
C51: x1+x16-y1_16 <=1 
C52: x1+x21-y1_21 <=1 
C53: x1+x26-y1_26 <=1 
C54: x1+x29-y1_29 <=1 
C55: x1+x32 <=1 
C56: x1+x33 <=1 
C57: x1+x34 <=1 
C58: x1+x37 <=1 
C59: x1+x38-y1_38 <=1 
C60: x1+x39 <=1 
C61: x1+x41 <=1 
C62: x1+x50-y1_50 <=1 
C63: x1+x51-y1_51 <=1 
C64: x1+x52-y1_52 <=1 
C65: x1+x53 <=1 
C66: x1+x54 <=1 
C67: x1+x55 <=1 
C68: x1+x57-y1_57 <=1 
C69: x1+x62 <=1 
C70: x2+x3 <=1 
C71: x2+x4-y2_4 <=1 
C72: x2+x7-y2_7 <=1 
C73: x2+x9-y2_9 <=1 
C74: x2+x11 <=1 
C75: x2+x13-y2_13 <=1 
C76: x2+x14 <=1 
C77: x2+x15 <=1 
C78: x2+x17-y2_17 <=1 
C79: x2+x18 <=1 
C80: x2+x21-y2_21 <=1 
C81: x2+x24 <=1 
C82: x2+x25 <=1 
C83: x2+x29-y2_29 <=1 
C84: x2+x31-y2_31 <=1 
C85: x2+x32 <=1 
C86: x2+x34-y2_34 <=1 
C87: x2+x35 <=1 
C88: x2+x39 <=1 
C89: x2+x40-y2_40 <=1 
C90: x2+x41-y2_41 <=1 
C91: x2+x45-y2_45 <=1 
C92: x2+x46-y2_46 <=1 
C93: x2+x47 <=1 
C94: x2+x48-y2_48 <=1 
C95: x2+x53 <=1 
C96: x2+x54-y2_54 <=1 
C97: x2+x55 <=1 
C98: x2+x57-y2_57 <=1 
C99: x2+x59 <=1 
C100: x2+x62 <=1 
C101: x3+x4-y3_4 <=1 
C102: x3+x6-y3_6 <=1 
C103: x3+x7-y3_7 <=1 
C104: x3+x8-y3_8 <=1 
C105: x3+x9 <=1 
C106: x3+x10 <=1 
C107: x3+x12-y3_12 <=1 
C108: x3+x13-y3_13 <=1 
C109: x3+x14-y3_14 <=1 
C110: x3+x17 <=1 
C111: x3+x18-y3_18 <=1 
C112: x3+x19-y3_19 <=1 
C113: x3+x27 <=1 
C114: x3+x28 <=1 
C115: x3+x29 <=1 
C116: x3+x30-y3_30 <=1 
C117: x3+x31-y3_31 <=1 
C118: x3+x33-y3_33 <=1 
C119: x3+x34 <=1 
C120: x3+x35 <=1 
C121: x3+x38 <=1 
C122: x3+x39-y3_39 <=1 
C123: x3+x40 <=1 
C124: x3+x41-y3_41 <=1 
C125: x3+x44 <=1 
C126: x3+x45 <=1 
C127: x3+x46 <=1 
C128: x3+x47-y3_47 <=1 
C129: x3+x49-y3_49 <=1 
C130: x3+x50-y3_50 <=1 
C131: x3+x51 <=1 
C132: x3+x52-y3_52 <=1 
C133: x3+x54 <=1 
C134: x3+x55 <=1 
C135: x3+x56-y3_56 <=1 
C136: x3+x57 <=1 
C137: x3+x61 <=1 
C138: x3+x62-y3_62 <=1 
C139: x4+x5-y4_5 <=1 
C140: x4+x6-y4_6 <=1 
C141: x4+x7 <=1 
C142: x4+x8-y4_8 <=1 
C143: x4+x10-y4_10 <=1 
C144: x4+x11 <=1 
C145: x4+x13 <=1 
C146: x4+x14 <=1 
C147: x4+x17-y4_17 <=1 
C148: x4+x18-y4_18 <=1 
C149: x4+x19 <=1 
C150: x4+x20-y4_20 <=1 
C151: x4+x21-y4_21 <=1 
C152: x4+x22-y4_22 <=1 
C153: x4+x23-y4_23 <=1 
C154: x4+x25 <=1 
C155: x4+x26 <=1 
C156: x4+x27-y4_27 <=1 
C157: x4+x31 <=1 
C158: x4+x33 <=1 
C159: x4+x35-y4_35 <=1 
C160: x4+x36-y4_36 <=1 
C161: x4+x37-y4_37 <=1 
C162: x4+x38-y4_38 <=1 
C163: x4+x40 <=1 
C164: x4+x41 <=1 
C165: x4+x42-y4_42 <=1 
C166: x4+x46 <=1 
C167: x4+x49 <=1 
C168: x4+x50-y4_50 <=1 
C169: x4+x51-y4_51 <=1 
C170: x4+x52-y4_52 <=1 
C171: x4+x54-y4_54 <=1 
C172: x4+x56-y4_56 <=1 
C173: x4+x57-y4_57 <=1 
C174: x4+x60-y4_60 <=1 
C175: x4+x61-y4_61 <=1 
C176: x4+x62 <=1 
C177: x5+x10-y5_10 <=1 
C178: x5+x11 <=1 
C179: x5+x12 <=1 
C180: x5+x14 <=1 
C181: x5+x15 <=1 
C182: x5+x16-y5_16 <=1 
C183: x5+x17 <=1 
C184: x5+x21-y5_21 <=1 
C185: x5+x23 <=1 
C186: x5+x24 <=1 
C187: x5+x25 <=1 
C188: x5+x26 <=1 
C189: x5+x27-y5_27 <=1 
C190: x5+x28 <=1 
C191: x5+x29 <=1 
C192: x5+x32-y5_32 <=1 
C193: x5+x36-y5_36 <=1 
C194: x5+x37 <=1 
C195: x5+x39 <=1 
C196: x5+x40-y5_40 <=1 
C197: x5+x45 <=1 
C198: x5+x46-y5_46 <=1 
C199: x5+x47-y5_47 <=1 
C200: x5+x48 <=1 
C201: x5+x49 <=1 
C202: x5+x50-y5_50 <=1 
C203: x5+x51 <=1 
C204: x5+x53 <=1 
C205: x5+x54 <=1 
C206: x5+x55 <=1 
C207: x5+x57-y5_57 <=1 
C208: x5+x59 <=1 
C209: x5+x61-y5_61 <=1 
C210: x5+x62 <=1 
C211: x6+x7-y6_7 <=1 
C212: x6+x9 <=1 
C213: x6+x10-y6_10 <=1 
C214: x6+x11-y6_11 <=1 
C215: x6+x12 <=1 
C216: x6+x17 <=1 
C217: x6+x18 <=1 
C218: x6+x21-y6_21 <=1 
C219: x6+x22-y6_22 <=1 
C220: x6+x23 <=1 
C221: x6+x24 <=1 
C222: x6+x25 <=1 
C223: x6+x27-y6_27 <=1 
C224: x6+x29-y6_29 <=1 
C225: x6+x30-y6_30 <=1 
C226: x6+x32 <=1 
C227: x6+x33-y6_33 <=1 
C228: x6+x36-y6_36 <=1 
C229: x6+x37 <=1 
C230: x6+x38-y6_38 <=1 
C231: x6+x40-y6_40 <=1 
C232: x6+x43 <=1 
C233: x6+x45-y6_45 <=1 
C234: x6+x46-y6_46 <=1 
C235: x6+x47 <=1 
C236: x6+x48 <=1 
C237: x6+x49 <=1 
C238: x6+x51-y6_51 <=1 
C239: x6+x52 <=1 
C240: x6+x54-y6_54 <=1 
C241: x6+x55-y6_55 <=1 
C242: x6+x57-y6_57 <=1 
C243: x6+x58-y6_58 <=1 
C244: x6+x60-y6_60 <=1 
C245: x7+x8-y7_8 <=1 
C246: x7+x9 <=1 
C247: x7+x10-y7_10 <=1 
C248: x7+x11 <=1 
C249: x7+x12-y7_12 <=1 
C250: x7+x13 <=1 
C251: x7+x14 <=1 
C252: x7+x16 <=1 
C253: x7+x17 <=1 
C254: x7+x19 <=1 
C255: x7+x24 <=1 
C256: x7+x26-y7_26 <=1 
C257: x7+x27-y7_27 <=1 
C258: x7+x28 <=1 
C259: x7+x30-y7_30 <=1 
C260: x7+x31 <=1 
C261: x7+x32-y7_32 <=1 
C262: x7+x34 <=1 
C263: x7+x35-y7_35 <=1 
C264: x7+x37-y7_37 <=1 
C265: x7+x39 <=1 
C266: x7+x41 <=1 
C267: x7+x42 <=1 
C268: x7+x43-y7_43 <=1 
C269: x7+x45-y7_45 <=1 
C270: x7+x48 <=1 
C271: x7+x49 <=1 
C272: x7+x51 <=1 
C273: x7+x52-y7_52 <=1 
C274: x7+x53 <=1 
C275: x7+x54-y7_54 <=1 
C276: x7+x55 <=1 
C277: x7+x56-y7_56 <=1 
C278: x7+x57-y7_57 <=1 
C279: x7+x58 <=1 
C280: x7+x59-y7_59 <=1 
C281: x7+x61-y7_61 <=1 
C282: x7+x62 <=1 
C283: x8+x10-y8_10 <=1 
C284: x8+x11-y8_11 <=1 
C285: x8+x13-y8_13 <=1 
C286: x8+x15-y8_15 <=1 
C287: x8+x16 <=1 
C288: x8+x18 <=1 
C289: x8+x19 <=1 
C290: x8+x22-y8_22 <=1 
C291: x8+x23-y8_23 <=1 
C292: x8+x24 <=1 
C293: x8+x25-y8_25 <=1 
C294: x8+x26-y8_26 <=1 
C295: x8+x27-y8_27 <=1 
C296: x8+x28-y8_28 <=1 
C297: x8+x29-y8_29 <=1 
C298: x8+x30 <=1 
C299: x8+x31 <=1 
C300: x8+x32 <=1 
C301: x8+x34-y8_34 <=1 
C302: x8+x36-y8_36 <=1 
C303: x8+x37-y8_37 <=1 
C304: x8+x39-y8_39 <=1 
C305: x8+x40 <=1 
C306: x8+x43 <=1 
C307: x8+x48-y8_48 <=1 
C308: x8+x51 <=1 
C309: x8+x52 <=1 
C310: x8+x53-y8_53 <=1 
C311: x8+x54 <=1 
C312: x8+x55-y8_55 <=1 
C313: x8+x57 <=1 
C314: x8+x61 <=1 
C315: x9+x10 <=1 
C316: x9+x13-y9_13 <=1 
C317: x9+x15 <=1 
C318: x9+x16 <=1 
C319: x9+x18 <=1 
C320: x9+x21 <=1 
C321: x9+x22 <=1 
C322: x9+x23-y9_23 <=1 
C323: x9+x27 <=1 
C324: x9+x28 <=1 
C325: x9+x31-y9_31 <=1 
C326: x9+x32-y9_32 <=1 
C327: x9+x33-y9_33 <=1 
C328: x9+x35-y9_35 <=1 
C329: x9+x36-y9_36 <=1 
C330: x9+x37-y9_37 <=1 
C331: x9+x38 <=1 
C332: x9+x40 <=1 
C333: x9+x42 <=1 
C334: x9+x45 <=1 
C335: x9+x46 <=1 
C336: x9+x47-y9_47 <=1 
C337: x9+x48-y9_48 <=1 
C338: x9+x51 <=1 
C339: x9+x53 <=1 
C340: x9+x54 <=1 
C341: x9+x55-y9_55 <=1 
C342: x9+x56-y9_56 <=1 
C343: x9+x59-y9_59 <=1 
C344: x10+x11 <=1 
C345: x10+x13-y10_13 <=1 
C346: x10+x14 <=1 
C347: x10+x15-y10_15 <=1 
C348: x10+x17 <=1 
C349: x10+x18-y10_18 <=1 
C350: x10+x19-y10_19 <=1 
C351: x10+x21-y10_21 <=1 
C352: x10+x24 <=1 
C353: x10+x25-y10_25 <=1 
C354: x10+x26-y10_26 <=1 
C355: x10+x28-y10_28 <=1 
C356: x10+x29 <=1 
C357: x10+x31-y10_31 <=1 
C358: x10+x32 <=1 
C359: x10+x33-y10_33 <=1 
C360: x10+x34-y10_34 <=1 
C361: x10+x35 <=1 
C362: x10+x36 <=1 
C363: x10+x39-y10_39 <=1 
C364: x10+x41 <=1 
C365: x10+x42-y10_42 <=1 
C366: x10+x43-y10_43 <=1 
C367: x10+x45-y10_45 <=1 
C368: x10+x46-y10_46 <=1 
C369: x10+x49 <=1 
C370: x10+x50 <=1 
C371: x10+x53-y10_53 <=1 
C372: x10+x54 <=1 
C373: x10+x60 <=1 
C374: x10+x61 <=1 
C375: x10+x62-y10_62 <=1 
C376: x11+x13 <=1 
C377: x11+x15 <=1 
C378: x11+x16-y11_16 <=1 
C379: x11+x17 <=1 
C380: x11+x19 <=1 
C381: x11+x21-y11_21 <=1 
C382: x11+x22 <=1 
C383: x11+x24 <=1 
C384: x11+x25-y11_25 <=1 
C385: x11+x26 <=1 
C386: x11+x28-y11_28 <=1 
C387: x11+x30-y11_30 <=1 
C388: x11+x31 <=1 
C389: x11+x33-y11_33 <=1 
C390: x11+x34 <=1 
C391: x11+x35 <=1 
C392: x11+x38-y11_38 <=1 
C393: x11+x39 <=1 
C394: x11+x41-y11_41 <=1 
C395: x11+x42-y11_42 <=1 
C396: x11+x43-y11_43 <=1 
C397: x11+x45 <=1 
C398: x11+x46 <=1 
C399: x11+x47 <=1 
C400: x11+x49-y11_49 <=1 
C401: x11+x50 <=1 
C402: x11+x51-y11_51 <=1 
C403: x11+x52-y11_52 <=1 
C404: x11+x53-y11_53 <=1 
C405: x11+x54-y11_54 <=1 
C406: x11+x55 <=1 
C407: x11+x56 <=1 
C408: x11+x57-y11_57 <=1 
C409: x11+x58 <=1 
C410: x11+x60-y11_60 <=1 
C411: x11+x61 <=1 
C412: x12+x13 <=1 
C413: x12+x14 <=1 
C414: x12+x16-y12_16 <=1 
C415: x12+x17 <=1 
C416: x12+x18-y12_18 <=1 
C417: x12+x20-y12_20 <=1 
C418: x12+x21 <=1 
C419: x12+x22-y12_22 <=1 
C420: x12+x23 <=1 
C421: x12+x24-y12_24 <=1 
C422: x12+x27 <=1 
C423: x12+x28 <=1 
C424: x12+x31 <=1 
C425: x12+x34-y12_34 <=1 
C426: x12+x36-y12_36 <=1 
C427: x12+x39-y12_39 <=1 
C428: x12+x40 <=1 
C429: x12+x41-y12_41 <=1 
C430: x12+x44-y12_44 <=1 
C431: x12+x45 <=1 
C432: x12+x52 <=1 
C433: x12+x53-y12_53 <=1 
C434: x12+x54-y12_54 <=1 
C435: x12+x55-y12_55 <=1 
C436: x12+x57-y12_57 <=1 
C437: x12+x58-y12_58 <=1 
C438: x12+x61 <=1 
C439: x13+x18-y13_18 <=1 
C440: x13+x20 <=1 
C441: x13+x24 <=1 
C442: x13+x25 <=1 
C443: x13+x26-y13_26 <=1 
C444: x13+x27-y13_27 <=1 
C445: x13+x28 <=1 
C446: x13+x32 <=1 
C447: x13+x35 <=1 
C448: x13+x36 <=1 
C449: x13+x39 <=1 
C450: x13+x43-y13_43 <=1 
C451: x13+x44 <=1 
C452: x13+x48 <=1 
C453: x13+x50 <=1 
C454: x13+x51 <=1 
C455: x13+x52-y13_52 <=1 
C456: x13+x53 <=1 
C457: x13+x54 <=1 
C458: x13+x57-y13_57 <=1 
C459: x13+x58-y13_58 <=1 
C460: x13+x59 <=1 
C461: x13+x60 <=1 
C462: x13+x62 <=1 
C463: x14+x15-y14_15 <=1 
C464: x14+x17-y14_17 <=1 
C465: x14+x18-y14_18 <=1 
C466: x14+x20 <=1 
C467: x14+x21 <=1 
C468: x14+x22-y14_22 <=1 
C469: x14+x23-y14_23 <=1 
C470: x14+x25 <=1 
C471: x14+x26 <=1 
C472: x14+x27-y14_27 <=1 
C473: x14+x28 <=1 
C474: x14+x29-y14_29 <=1 
C475: x14+x30 <=1 
C476: x14+x31-y14_31 <=1 
C477: x14+x32-y14_32 <=1 
C478: x14+x36 <=1 
C479: x14+x37-y14_37 <=1 
C480: x14+x38-y14_38 <=1 
C481: x14+x39 <=1 
C482: x14+x41-y14_41 <=1 
C483: x14+x42-y14_42 <=1 
C484: x14+x43-y14_43 <=1 
C485: x14+x45 <=1 
C486: x14+x46 <=1 
C487: x14+x47-y14_47 <=1 
C488: x14+x49 <=1 
C489: x14+x52-y14_52 <=1 
C490: x14+x53 <=1 
C491: x14+x54-y14_54 <=1 
C492: x14+x57-y14_57 <=1 
C493: x14+x61 <=1 
C494: x14+x62 <=1 
C495: x15+x17-y15_17 <=1 
C496: x15+x18-y15_18 <=1 
C497: x15+x19-y15_19 <=1 
C498: x15+x20-y15_20 <=1 
C499: x15+x22-y15_22 <=1 
C500: x15+x25-y15_25 <=1 
C501: x15+x26 <=1 
C502: x15+x28 <=1 
C503: x15+x29 <=1 
C504: x15+x30 <=1 
C505: x15+x31 <=1 
C506: x15+x32-y15_32 <=1 
C507: x15+x33-y15_33 <=1 
C508: x15+x34-y15_34 <=1 
C509: x15+x36 <=1 
C510: x15+x39-y15_39 <=1 
C511: x15+x41-y15_41 <=1 
C512: x15+x43-y15_43 <=1 
C513: x15+x44 <=1 
C514: x15+x45 <=1 
C515: x15+x46 <=1 
C516: x15+x47 <=1 
C517: x15+x48-y15_48 <=1 
C518: x15+x49-y15_49 <=1 
C519: x15+x50-y15_50 <=1 
C520: x15+x51-y15_51 <=1 
C521: x15+x53-y15_53 <=1 
C522: x15+x56-y15_56 <=1 
C523: x15+x61-y15_61 <=1 
C524: x16+x17-y16_17 <=1 
C525: x16+x18 <=1 
C526: x16+x19-y16_19 <=1 
C527: x16+x22-y16_22 <=1 
C528: x16+x23 <=1 
C529: x16+x24-y16_24 <=1 
C530: x16+x25 <=1 
C531: x16+x27 <=1 
C532: x16+x29 <=1 
C533: x16+x33-y16_33 <=1 
C534: x16+x37-y16_37 <=1 
C535: x16+x38 <=1 
C536: x16+x39-y16_39 <=1 
C537: x16+x40-y16_40 <=1 
C538: x16+x41-y16_41 <=1 
C539: x16+x43 <=1 
C540: x16+x45-y16_45 <=1 
C541: x16+x46-y16_46 <=1 
C542: x16+x47-y16_47 <=1 
C543: x16+x48-y16_48 <=1 
C544: x16+x49-y16_49 <=1 
C545: x16+x50 <=1 
C546: x16+x51 <=1 
C547: x16+x53-y16_53 <=1 
C548: x16+x56 <=1 
C549: x16+x59-y16_59 <=1 
C550: x16+x60-y16_60 <=1 
C551: x17+x19-y17_19 <=1 
C552: x17+x23 <=1 
C553: x17+x25 <=1 
C554: x17+x26-y17_26 <=1 
C555: x17+x27-y17_27 <=1 
C556: x17+x28 <=1 
C557: x17+x29-y17_29 <=1 
C558: x17+x30 <=1 
C559: x17+x32 <=1 
C560: x17+x33-y17_33 <=1 
C561: x17+x35 <=1 
C562: x17+x37 <=1 
C563: x17+x42 <=1 
C564: x17+x43 <=1 
C565: x17+x44 <=1 
C566: x17+x46-y17_46 <=1 
C567: x17+x47 <=1 
C568: x17+x48 <=1 
C569: x17+x50-y17_50 <=1 
C570: x17+x52 <=1 
C571: x17+x54-y17_54 <=1 
C572: x17+x55 <=1 
C573: x17+x56 <=1 
C574: x17+x57-y17_57 <=1 
C575: x17+x59 <=1 
C576: x17+x60 <=1 
C577: x17+x62-y17_62 <=1 
C578: x18+x19 <=1 
C579: x18+x21-y18_21 <=1 
C580: x18+x24 <=1 
C581: x18+x25 <=1 
C582: x18+x27-y18_27 <=1 
C583: x18+x29-y18_29 <=1 
C584: x18+x34-y18_34 <=1 
C585: x18+x37 <=1 
C586: x18+x38 <=1 
C587: x18+x40 <=1 
C588: x18+x43-y18_43 <=1 
C589: x18+x49-y18_49 <=1 
C590: x18+x50 <=1 
C591: x18+x51-y18_51 <=1 
C592: x18+x52-y18_52 <=1 
C593: x18+x53 <=1 
C594: x18+x54 <=1 
C595: x18+x55 <=1 
C596: x18+x58-y18_58 <=1 
C597: x18+x61-y18_61 <=1 
C598: x18+x62-y18_62 <=1 
C599: x19+x20 <=1 
C600: x19+x22 <=1 
C601: x19+x24 <=1 
C602: x19+x26 <=1 
C603: x19+x28 <=1 
C604: x19+x30 <=1 
C605: x19+x31 <=1 
C606: x19+x32 <=1 
C607: x19+x34 <=1 
C608: x19+x35 <=1 
C609: x19+x38-y19_38 <=1 
C610: x19+x41-y19_41 <=1 
C611: x19+x44-y19_44 <=1 
C612: x19+x45 <=1 
C613: x19+x46-y19_46 <=1 
C614: x19+x47 <=1 
C615: x19+x50 <=1 
C616: x19+x51-y19_51 <=1 
C617: x19+x52 <=1 
C618: x19+x58-y19_58 <=1 
C619: x19+x60 <=1 
C620: x19+x62-y19_62 <=1 
C621: x20+x22-y20_22 <=1 
C622: x20+x23-y20_23 <=1 
C623: x20+x26 <=1 
C624: x20+x27 <=1 
C625: x20+x28-y20_28 <=1 
C626: x20+x29 <=1 
C627: x20+x31 <=1 
C628: x20+x34 <=1 
C629: x20+x35 <=1 
C630: x20+x36-y20_36 <=1 
C631: x20+x38 <=1 
C632: x20+x39-y20_39 <=1 
C633: x20+x40 <=1 
C634: x20+x43 <=1 
C635: x20+x45-y20_45 <=1 
C636: x20+x48-y20_48 <=1 
C637: x20+x50 <=1 
C638: x20+x51-y20_51 <=1 
C639: x20+x52 <=1 
C640: x20+x53-y20_53 <=1 
C641: x20+x55-y20_55 <=1 
C642: x20+x56-y20_56 <=1 
C643: x20+x58-y20_58 <=1 
C644: x20+x59-y20_59 <=1 
C645: x20+x61-y20_61 <=1 
C646: x20+x62-y20_62 <=1 
C647: x21+x22-y21_22 <=1 
C648: x21+x24 <=1 
C649: x21+x26-y21_26 <=1 
C650: x21+x27-y21_27 <=1 
C651: x21+x28 <=1 
C652: x21+x30 <=1 
C653: x21+x34-y21_34 <=1 
C654: x21+x36 <=1 
C655: x21+x37 <=1 
C656: x21+x38-y21_38 <=1 
C657: x21+x39-y21_39 <=1 
C658: x21+x42 <=1 
C659: x21+x43-y21_43 <=1 
C660: x21+x44-y21_44 <=1 
C661: x21+x45 <=1 
C662: x21+x46-y21_46 <=1 
C663: x21+x49-y21_49 <=1 
C664: x21+x51 <=1 
C665: x21+x54-y21_54 <=1 
C666: x21+x55-y21_55 <=1 
C667: x21+x58-y21_58 <=1 
C668: x21+x60-y21_60 <=1 
C669: x21+x61-y21_61 <=1 
C670: x21+x62 <=1 
C671: x22+x23 <=1 
C672: x22+x24-y22_24 <=1 
C673: x22+x25 <=1 
C674: x22+x26-y22_26 <=1 
C675: x22+x30-y22_30 <=1 
C676: x22+x31-y22_31 <=1 
C677: x22+x32-y22_32 <=1 
C678: x22+x34-y22_34 <=1 
C679: x22+x35 <=1 
C680: x22+x37-y22_37 <=1 
C681: x22+x39 <=1 
C682: x22+x40 <=1 
C683: x22+x43 <=1 
C684: x22+x44 <=1 
C685: x22+x45 <=1 
C686: x22+x46 <=1 
C687: x22+x49-y22_49 <=1 
C688: x22+x51 <=1 
C689: x22+x52 <=1 
C690: x22+x55-y22_55 <=1 
C691: x22+x56-y22_56 <=1 
C692: x22+x59 <=1 
C693: x22+x60 <=1 
C694: x22+x62 <=1 
C695: x23+x24-y23_24 <=1 
C696: x23+x25-y23_25 <=1 
C697: x23+x26-y23_26 <=1 
C698: x23+x27 <=1 
C699: x23+x28 <=1 
C700: x23+x29-y23_29 <=1 
C701: x23+x30 <=1 
C702: x23+x31-y23_31 <=1 
C703: x23+x32-y23_32 <=1 
C704: x23+x34 <=1 
C705: x23+x35 <=1 
C706: x23+x36-y23_36 <=1 
C707: x23+x38 <=1 
C708: x23+x39 <=1 
C709: x23+x40-y23_40 <=1 
C710: x23+x43 <=1 
C711: x23+x44-y23_44 <=1 
C712: x23+x45-y23_45 <=1 
C713: x23+x46-y23_46 <=1 
C714: x23+x47-y23_47 <=1 
C715: x23+x49 <=1 
C716: x23+x51-y23_51 <=1 
C717: x23+x53-y23_53 <=1 
C718: x23+x54 <=1 
C719: x23+x55 <=1 
C720: x23+x56 <=1 
C721: x23+x58 <=1 
C722: x23+x61 <=1 
C723: x23+x62 <=1 
C724: x24+x30-y24_30 <=1 
C725: x24+x34 <=1 
C726: x24+x35 <=1 
C727: x24+x36-y24_36 <=1 
C728: x24+x37 <=1 
C729: x24+x38 <=1 
C730: x24+x39 <=1 
C731: x24+x41-y24_41 <=1 
C732: x24+x42 <=1 
C733: x24+x44 <=1 
C734: x24+x45 <=1 
C735: x24+x47 <=1 
C736: x24+x48 <=1 
C737: x24+x50 <=1 
C738: x24+x53-y24_53 <=1 
C739: x24+x55-y24_55 <=1 
C740: x24+x57 <=1 
C741: x24+x58 <=1 
C742: x24+x60 <=1 
C743: x24+x62-y24_62 <=1 
C744: x25+x27-y25_27 <=1 
C745: x25+x28-y25_28 <=1 
C746: x25+x29-y25_29 <=1 
C747: x25+x31-y25_31 <=1 
C748: x25+x32-y25_32 <=1 
C749: x25+x33 <=1 
C750: x25+x34-y25_34 <=1 
C751: x25+x37-y25_37 <=1 
C752: x25+x38 <=1 
C753: x25+x39-y25_39 <=1 
C754: x25+x40 <=1 
C755: x25+x42 <=1 
C756: x25+x43-y25_43 <=1 
C757: x25+x45 <=1 
C758: x25+x46 <=1 
C759: x25+x47 <=1 
C760: x25+x48 <=1 
C761: x25+x49-y25_49 <=1 
C762: x25+x51-y25_51 <=1 
C763: x25+x52 <=1 
C764: x25+x54-y25_54 <=1 
C765: x25+x55 <=1 
C766: x25+x57-y25_57 <=1 
C767: x25+x58-y25_58 <=1 
C768: x25+x60-y25_60 <=1 
C769: x25+x61-y25_61 <=1 
C770: x25+x62-y25_62 <=1 
C771: x26+x27 <=1 
C772: x26+x28 <=1 
C773: x26+x32 <=1 
C774: x26+x33-y26_33 <=1 
C775: x26+x35-y26_35 <=1 
C776: x26+x41 <=1 
C777: x26+x44 <=1 
C778: x26+x48-y26_48 <=1 
C779: x26+x50 <=1 
C780: x26+x54-y26_54 <=1 
C781: x26+x57-y26_57 <=1 
C782: x26+x58 <=1 
C783: x26+x62 <=1 
C784: x27+x29-y27_29 <=1 
C785: x27+x30-y27_30 <=1 
C786: x27+x31 <=1 
C787: x27+x32-y27_32 <=1 
C788: x27+x33 <=1 
C789: x27+x35-y27_35 <=1 
C790: x27+x36-y27_36 <=1 
C791: x27+x38-y27_38 <=1 
C792: x27+x40-y27_40 <=1 
C793: x27+x41-y27_41 <=1 
C794: x27+x42 <=1 
C795: x27+x44-y27_44 <=1 
C796: x27+x46 <=1 
C797: x27+x54-y27_54 <=1 
C798: x27+x55-y27_55 <=1 
C799: x27+x56-y27_56 <=1 
C800: x27+x58-y27_58 <=1 
C801: x27+x61-y27_61 <=1 
C802: x27+x62 <=1 
C803: x28+x29 <=1 
C804: x28+x30-y28_30 <=1 
C805: x28+x31-y28_31 <=1 
C806: x28+x33-y28_33 <=1 
C807: x28+x34-y28_34 <=1 
C808: x28+x36-y28_36 <=1 
C809: x28+x37 <=1 
C810: x28+x39 <=1 
C811: x28+x41 <=1 
C812: x28+x42-y28_42 <=1 
C813: x28+x43-y28_43 <=1 
C814: x28+x44 <=1 
C815: x28+x46 <=1 
C816: x28+x47-y28_47 <=1 
C817: x28+x48 <=1 
C818: x28+x49-y28_49 <=1 
C819: x28+x50 <=1 
C820: x28+x51-y28_51 <=1 
C821: x28+x52 <=1 
C822: x28+x54-y28_54 <=1 
C823: x28+x56 <=1 
C824: x28+x58 <=1 
C825: x28+x59-y28_59 <=1 
C826: x28+x60 <=1 
C827: x28+x61 <=1 
C828: x29+x30 <=1 
C829: x29+x34-y29_34 <=1 
C830: x29+x36 <=1 
C831: x29+x37 <=1 
C832: x29+x38-y29_38 <=1 
C833: x29+x40-y29_40 <=1 
C834: x29+x41 <=1 
C835: x29+x42 <=1 
C836: x29+x44 <=1 
C837: x29+x46 <=1 
C838: x29+x48-y29_48 <=1 
C839: x29+x49-y29_49 <=1 
C840: x29+x50 <=1 
C841: x29+x51 <=1 
C842: x29+x52 <=1 
C843: x29+x54 <=1 
C844: x29+x55 <=1 
C845: x29+x60-y29_60 <=1 
C846: x29+x61-y29_61 <=1 
C847: x30+x31-y30_31 <=1 
C848: x30+x32 <=1 
C849: x30+x33-y30_33 <=1 
C850: x30+x34 <=1 
C851: x30+x36 <=1 
C852: x30+x37-y30_37 <=1 
C853: x30+x39 <=1 
C854: x30+x40 <=1 
C855: x30+x43 <=1 
C856: x30+x45 <=1 
C857: x30+x46 <=1 
C858: x30+x48 <=1 
C859: x30+x49-y30_49 <=1 
C860: x30+x54 <=1 
C861: x30+x55 <=1 
C862: x30+x56-y30_56 <=1 
C863: x30+x57-y30_57 <=1 
C864: x30+x58 <=1 
C865: x30+x60 <=1 
C866: x30+x61 <=1 
C867: x30+x62 <=1 
C868: x31+x32 <=1 
C869: x31+x33-y31_33 <=1 
C870: x31+x36-y31_36 <=1 
C871: x31+x38 <=1 
C872: x31+x39 <=1 
C873: x31+x40-y31_40 <=1 
C874: x31+x45-y31_45 <=1 
C875: x31+x46 <=1 
C876: x31+x49-y31_49 <=1 
C877: x31+x50 <=1 
C878: x31+x51-y31_51 <=1 
C879: x31+x52 <=1 
C880: x31+x59 <=1 
C881: x32+x33-y32_33 <=1 
C882: x32+x35-y32_35 <=1 
C883: x32+x37-y32_37 <=1 
C884: x32+x41-y32_41 <=1 
C885: x32+x43-y32_43 <=1 
C886: x32+x44 <=1 
C887: x32+x45-y32_45 <=1 
C888: x32+x47-y32_47 <=1 
C889: x32+x48-y32_48 <=1 
C890: x32+x53-y32_53 <=1 
C891: x32+x54 <=1 
C892: x32+x56-y32_56 <=1 
C893: x32+x57 <=1 
C894: x32+x60-y32_60 <=1 
C895: x32+x61 <=1 
C896: x33+x36-y33_36 <=1 
C897: x33+x37 <=1 
C898: x33+x40 <=1 
C899: x33+x41-y33_41 <=1 
C900: x33+x42 <=1 
C901: x33+x44-y33_44 <=1 
C902: x33+x45 <=1 
C903: x33+x47 <=1 
C904: x33+x49 <=1 
C905: x33+x51 <=1 
C906: x33+x52-y33_52 <=1 
C907: x33+x53 <=1 
C908: x33+x56-y33_56 <=1 
C909: x33+x57 <=1 
C910: x33+x59-y33_59 <=1 
C911: x33+x60-y33_60 <=1 
C912: x33+x62 <=1 
C913: x34+x35-y34_35 <=1 
C914: x34+x36 <=1 
C915: x34+x37-y34_37 <=1 
C916: x34+x38-y34_38 <=1 
C917: x34+x40 <=1 
C918: x34+x42-y34_42 <=1 
C919: x34+x43-y34_43 <=1 
C920: x34+x46-y34_46 <=1 
C921: x34+x48 <=1 
C922: x34+x49-y34_49 <=1 
C923: x34+x52-y34_52 <=1 
C924: x34+x55-y34_55 <=1 
C925: x34+x56 <=1 
C926: x34+x57-y34_57 <=1 
C927: x34+x58-y34_58 <=1 
C928: x34+x59 <=1 
C929: x34+x60 <=1 
C930: x35+x36-y35_36 <=1 
C931: x35+x38-y35_38 <=1 
C932: x35+x41-y35_41 <=1 
C933: x35+x43 <=1 
C934: x35+x44-y35_44 <=1 
C935: x35+x45-y35_45 <=1 
C936: x35+x46 <=1 
C937: x35+x47 <=1 
C938: x35+x48-y35_48 <=1 
C939: x35+x50-y35_50 <=1 
C940: x35+x51-y35_51 <=1 
C941: x35+x54 <=1 
C942: x35+x55-y35_55 <=1 
C943: x35+x58 <=1 
C944: x35+x60-y35_60 <=1 
C945: x35+x61-y35_61 <=1 
C946: x36+x39 <=1 
C947: x36+x40 <=1 
C948: x36+x43 <=1 
C949: x36+x44-y36_44 <=1 
C950: x36+x45 <=1 
C951: x36+x47 <=1 
C952: x36+x48-y36_48 <=1 
C953: x36+x49 <=1 
C954: x36+x52-y36_52 <=1 
C955: x36+x53 <=1 
C956: x36+x54-y36_54 <=1 
C957: x36+x55-y36_55 <=1 
C958: x36+x56-y36_56 <=1 
C959: x36+x62 <=1 
C960: x37+x38-y37_38 <=1 
C961: x37+x39 <=1 
C962: x37+x40-y37_40 <=1 
C963: x37+x42-y37_42 <=1 
C964: x37+x43-y37_43 <=1 
C965: x37+x44-y37_44 <=1 
C966: x37+x45 <=1 
C967: x37+x46-y37_46 <=1 
C968: x37+x47-y37_47 <=1 
C969: x37+x48 <=1 
C970: x37+x49-y37_49 <=1 
C971: x37+x51-y37_51 <=1 
C972: x37+x52 <=1 
C973: x37+x53-y37_53 <=1 
C974: x37+x57 <=1 
C975: x37+x59-y37_59 <=1 
C976: x37+x60 <=1 
C977: x38+x39-y38_39 <=1 
C978: x38+x41 <=1 
C979: x38+x42 <=1 
C980: x38+x46-y38_46 <=1 
C981: x38+x48 <=1 
C982: x38+x49 <=1 
C983: x38+x50 <=1 
C984: x38+x51-y38_51 <=1 
C985: x38+x52-y38_52 <=1 
C986: x38+x53-y38_53 <=1 
C987: x38+x55 <=1 
C988: x38+x58-y38_58 <=1 
C989: x38+x60-y38_60 <=1 
C990: x39+x40 <=1 
C991: x39+x41 <=1 
C992: x39+x45-y39_45 <=1 
C993: x39+x46 <=1 
C994: x39+x48 <=1 
C995: x39+x49 <=1 
C996: x39+x50 <=1 
C997: x39+x54 <=1 
C998: x39+x56 <=1 
C999: x39+x57 <=1 
C1000: x39+x59 <=1 
C1001: x39+x61 <=1 
C1002: x39+x62-y39_62 <=1 
C1003: x40+x41 <=1 
C1004: x40+x42 <=1 
C1005: x40+x47 <=1 
C1006: x40+x48-y40_48 <=1 
C1007: x40+x49-y40_49 <=1 
C1008: x40+x51 <=1 
C1009: x40+x52 <=1 
C1010: x40+x53-y40_53 <=1 
C1011: x40+x55-y40_55 <=1 
C1012: x40+x57 <=1 
C1013: x40+x59 <=1 
C1014: x40+x61-y40_61 <=1 
C1015: x41+x42-y41_42 <=1 
C1016: x41+x44 <=1 
C1017: x41+x45 <=1 
C1018: x41+x46-y41_46 <=1 
C1019: x41+x47 <=1 
C1020: x41+x50 <=1 
C1021: x41+x55 <=1 
C1022: x41+x56-y41_56 <=1 
C1023: x41+x57-y41_57 <=1 
C1024: x41+x58-y41_58 <=1 
C1025: x41+x59-y41_59 <=1 
C1026: x41+x60 <=1 
C1027: x42+x43 <=1 
C1028: x42+x45 <=1 
C1029: x42+x46 <=1 
C1030: x42+x47-y42_47 <=1 
C1031: x42+x48 <=1 
C1032: x42+x50 <=1 
C1033: x42+x51 <=1 
C1034: x42+x54-y42_54 <=1 
C1035: x42+x56-y42_56 <=1 
C1036: x42+x60 <=1 
C1037: x42+x62 <=1 
C1038: x43+x47-y43_47 <=1 
C1039: x43+x51-y43_51 <=1 
C1040: x43+x52-y43_52 <=1 
C1041: x43+x53 <=1 
C1042: x43+x54 <=1 
C1043: x43+x55-y43_55 <=1 
C1044: x43+x56-y43_56 <=1 
C1045: x43+x57 <=1 
C1046: x43+x58 <=1 
C1047: x43+x59-y43_59 <=1 
C1048: x43+x60-y43_60 <=1 
C1049: x43+x61-y43_61 <=1 
C1050: x44+x45 <=1 
C1051: x44+x47 <=1 
C1052: x44+x48-y44_48 <=1 
C1053: x44+x52-y44_52 <=1 
C1054: x44+x55 <=1 
C1055: x44+x57 <=1 
C1056: x44+x58 <=1 
C1057: x44+x59-y44_59 <=1 
C1058: x44+x60 <=1 
C1059: x44+x61-y44_61 <=1 
C1060: x45+x46 <=1 
C1061: x45+x47-y45_47 <=1 
C1062: x45+x48-y45_48 <=1 
C1063: x45+x49 <=1 
C1064: x45+x50-y45_50 <=1 
C1065: x45+x52 <=1 
C1066: x45+x53 <=1 
C1067: x45+x54 <=1 
C1068: x45+x55-y45_55 <=1 
C1069: x45+x58-y45_58 <=1 
C1070: x45+x59-y45_59 <=1 
C1071: x45+x61-y45_61 <=1 
C1072: x45+x62 <=1 
C1073: x46+x49 <=1 
C1074: x46+x50 <=1 
C1075: x46+x52 <=1 
C1076: x46+x53-y46_53 <=1 
C1077: x46+x54 <=1 
C1078: x46+x56 <=1 
C1079: x46+x57 <=1 
C1080: x46+x58-y46_58 <=1 
C1081: x46+x59 <=1 
C1082: x46+x61-y46_61 <=1 
C1083: x47+x48 <=1 
C1084: x47+x49-y47_49 <=1 
C1085: x47+x52-y47_52 <=1 
C1086: x47+x53 <=1 
C1087: x47+x54-y47_54 <=1 
C1088: x47+x55-y47_55 <=1 
C1089: x47+x56 <=1 
C1090: x47+x57-y47_57 <=1 
C1091: x47+x60-y47_60 <=1 
C1092: x47+x61-y47_61 <=1 
C1093: x48+x49 <=1 
C1094: x48+x51 <=1 
C1095: x48+x52 <=1 
C1096: x48+x53 <=1 
C1097: x48+x56-y48_56 <=1 
C1098: x48+x60 <=1 
C1099: x48+x62 <=1 
C1100: x49+x54-y49_54 <=1 
C1101: x49+x56 <=1 
C1102: x49+x58-y49_58 <=1 
C1103: x49+x59-y49_59 <=1 
C1104: x50+x52-y50_52 <=1 
C1105: x50+x55 <=1 
C1106: x50+x57 <=1 
C1107: x50+x58-y50_58 <=1 
C1108: x50+x60-y50_60 <=1 
C1109: x50+x61 <=1 
C1110: x51+x52 <=1 
C1111: x51+x53 <=1 
C1112: x51+x54 <=1 
C1113: x51+x55 <=1 
C1114: x51+x57-y51_57 <=1 
C1115: x51+x58-y51_58 <=1 
C1116: x51+x60-y51_60 <=1 
C1117: x51+x61-y51_61 <=1 
C1118: x52+x53 <=1 
C1119: x52+x55-y52_55 <=1 
C1120: x52+x56-y52_56 <=1 
C1121: x52+x57 <=1 
C1122: x52+x61 <=1 
C1123: x53+x54-y53_54 <=1 
C1124: x53+x55 <=1 
C1125: x53+x56 <=1 
C1126: x53+x57 <=1 
C1127: x53+x58 <=1 
C1128: x53+x59 <=1 
C1129: x53+x60 <=1 
C1130: x53+x61 <=1 
C1131: x53+x62 <=1 
C1132: x54+x55 <=1 
C1133: x54+x57-y54_57 <=1 
C1134: x54+x62 <=1 
C1135: x55+x57 <=1 
C1136: x55+x58-y55_58 <=1 
C1137: x55+x60 <=1 
C1138: x55+x61-y55_61 <=1 
C1139: x56+x57-y56_57 <=1 
C1140: x56+x62 <=1 
C1141: x57+x59-y57_59 <=1 
C1142: x57+x60-y57_60 <=1 
C1143: x57+x62 <=1 
C1144: x58+x59 <=1 
C1145: x59+x62-y59_62 <=1 
C1146: x60+x62 <=1 

binary
x0
x1
x2
x3
x4
x5
x6
x7
x8
x9
x10
x11
x12
x13
x14
x15
x16
x17
x18
x19
x20
x21
x22
x23
x24
x25
x26
x27
x28
x29
x30
x31
x32
x33
x34
x35
x36
x37
x38
x39
x40
x41
x42
x43
x44
x45
x46
x47
x48
x49
x50
x51
x52
x53
x54
x55
x56
x57
x58
x59
x60
x61
x62
