problem_generation/data/GISP/train/er_n=63_m=1146_p=0.60_SET2_setparam=100.00_alpha=0.50_840.sol
objective value:                                 1277
x2                                                  1 	(obj:100)
x5                                                  1 	(obj:100)
x6                                                  1 	(obj:100)
x13                                                 1 	(obj:100)
x16                                                 1 	(obj:100)
x22                                                 1 	(obj:100)
x31                                                 1 	(obj:100)
x34                                                 1 	(obj:100)
x41                                                 1 	(obj:100)
x42                                                 1 	(obj:100)
x57                                                 1 	(obj:100)
x58                                                 1 	(obj:100)
x61                                                 1 	(obj:100)
y6_57                                               1 	(obj:-1)
y41_42                                              1 	(obj:-1)
y2_41                                               1 	(obj:-1)
y2_13                                               1 	(obj:-1)
y2_31                                               1 	(obj:-1)
y16_41                                              1 	(obj:-1)
y16_22                                              1 	(obj:-1)
y34_58                                              1 	(obj:-1)
y5_16                                               1 	(obj:-1)
y34_57                                              1 	(obj:-1)
y22_31                                              1 	(obj:-1)
y34_42                                              1 	(obj:-1)
y41_58                                              1 	(obj:-1)
y2_57                                               1 	(obj:-1)
y2_34                                               1 	(obj:-1)
y13_58                                              1 	(obj:-1)
y5_57                                               1 	(obj:-1)
y6_22                                               1 	(obj:-1)
y6_58                                               1 	(obj:-1)
y13_57                                              1 	(obj:-1)
y5_61                                               1 	(obj:-1)
y41_57                                              1 	(obj:-1)
y22_34                                              1 	(obj:-1)
